%mem=15GB
%nproc=40
#P HF/6-31G(d) SCF=Tight Pop=MK IOp(6/50=1)

PNT

0 1
C    0.000000E+00   7.268320E-01  -3.671276E+00
C    0.000000E+00  -7.268320E-01  -3.671276E+00
C    0.000000E+00   1.408733E+00  -4.933593E+00
C    0.000000E+00  -1.408734E+00  -4.933593E+00
C    0.000000E+00   7.160470E-01  -6.106357E+00
C    0.000000E+00  -7.160470E-01  -6.106356E+00
C    0.000000E+00   1.406391E+00  -2.463317E+00
C    0.000000E+00   7.275970E-01  -1.224029E+00
C    0.000000E+00  -1.406391E+00  -2.463317E+00
C    0.000000E+00  -7.275970E-01  -1.224029E+00
H    0.000000E+00   2.493762E+00  -4.933260E+00
H    0.000000E+00   2.492108E+00  -2.463929E+00
H    0.000000E+00  -2.492107E+00  -2.463928E+00
H    0.000000E+00  -2.493762E+00  -4.933260E+00
H    0.000000E+00  -1.245295E+00  -7.052528E+00
H    0.000000E+00   1.245295E+00  -7.052528E+00
C    0.000000E+00   1.406886E+00  -0.000000E+00
C    0.000000E+00   7.275960E-01   1.224030E+00
C    0.000000E+00  -1.406886E+00  -0.000000E+00
C    0.000000E+00  -7.275970E-01   1.224030E+00
H    0.000000E+00   2.492509E+00  -0.000000E+00
H    0.000000E+00  -2.492507E+00  -0.000000E+00
C    0.000000E+00   1.406391E+00   2.463317E+00
C    0.000000E+00   7.268320E-01   3.671276E+00
C    0.000000E+00  -1.406391E+00   2.463317E+00
C    0.000000E+00  -7.268320E-01   3.671276E+00
H    0.000000E+00   2.492108E+00   2.463929E+00
H    0.000000E+00  -2.492107E+00   2.463928E+00
C    0.000000E+00   1.408733E+00   4.933592E+00
C    0.000000E+00   7.160460E-01   6.106357E+00
C    0.000000E+00  -1.408733E+00   4.933592E+00
C    0.000000E+00  -7.160460E-01   6.106357E+00
H    0.000000E+00   2.493761E+00   4.933260E+00
H    0.000000E+00   1.245295E+00   7.052527E+00
H    0.000000E+00  -1.245296E+00   7.052527E+00
H    0.000000E+00  -2.493761E+00   4.933260E+00

PNT_HF_esp.dat
